
--- Job bchfcnet.gms Start 02/08/22 12:23:45 34.3.0 rac355f3 WEX-WEI x86 64bit/MS Windows
--- Applying:
    C:\GAMS\34\gmsprmNT.txt
--- GAMS Parameters defined
    Input C:\Users\dekhi\Desktop\gamsworld\FCNetLib\test\bchfcnet.gms
    PageSize 0
    ScrDir C:\Users\dekhi\Desktop\gamsworld\FCNetLib\test\225a\
    SysDir C:\GAMS\34\
    LogOption 3
    ErrMsg 1
    ErrorLog 99
    IDE 1
    ResLim 3600
    LstTitleLeftAligned 1
Licensee: Eval License                                   S211214|0002AW-GEN
          Ostfalia Hochschule fuer angewandte Wissenschaften        DCE1645
          C:\Users\dekhi\Documents\GAMS\gamslice.txt
          License Admin: Mohamed Ali Dekhil, dekhil.medali@gmail.com       
          Evaluation license: Not for commercial or production use
GAMS 34.3.0   Copyright (C) 1987-2021 GAMS Development. All rights reserved
--- Starting compilation
--- bchfcnet.gms(34) 2 Mb
--- . decl.gms(15) 2 Mb
--- bchfcnet.gms(38) 2 Mb
--- . g55x188.inc(432) 3 Mb
--- bchfcnet.gms(67) 3 Mb
--- . equs.gms(20) 3 Mb
--- bchfcnet.gms(97) 3 Mb
--- call rm -f bchout_i.gdx startcut.txt startheur.txt cuthist.gdx agap.txt rgap.txt cntfail.txt
--- bchfcnet.gms(118) 3 Mb
--- Starting execution: elapsed 0:00:00.073
--- bchfcnet.gms(490) 4 Mb
--- GDX File (execute_unload) C:\Users\dekhi\Desktop\gamsworld\FCNetLib\test\net.gdx
--- bchfcnet.gms(581) 4 Mb
--- GDXin=C:\Users\dekhi\Desktop\gamsworld\FCNetLib\test\points\g55x188.gdx
--- GDX File (execute_load) C:\Users\dekhi\Desktop\gamsworld\FCNetLib\test\points\g55x188.gdx
--- Generating MIP model master
--- bchfcnet.gms(585) 4 Mb
---   244 rows  377 columns  1,129 non-zeroes
---   188 discrete-columns
--- Executing CPLEX (Solvelink=2): elapsed 0:00:00.094

IBM ILOG CPLEX   34.3.0 rac355f3 Released Feb 25, 2021 WEI x86 64bit/MS Window

--- GAMS/Cplex Link licensed for continuous and discrete problems.

Reading parameter(s) from "C:\Users\dekhi\Desktop\gamsworld\FCNetLib\test\cplex.op2"
>>  mipstart 1
Finished reading from "C:\Users\dekhi\Desktop\gamsworld\FCNetLib\test\cplex.op2"

--- Space for names approximately 0.01 Mb
--- Use option 'names no' to turn use of names off
--- GMO memory 0.57 Mb (peak 0.57 Mb)
--- Dictionary memory 0.00 Mb
--- Cplex 20.1.0.0 link memory 0.01 Mb (peak 0.04 Mb)
--- Starting Cplex

Version identifier: 20.1.0.0 | 2020-11-10 | 9bedb6d68
CPXPARAM_Threads                                 1
CPXPARAM_MIP_Display                             4
CPXPARAM_TimeLimit                               3600
CPXPARAM_MIP_Tolerances_AbsMIPGap                0
CPXPARAM_MIP_Tolerances_MIPGap                   0
Generic callback                                 0x50
Processing 1 MIP starts.
MIP start 'm1' defined solution with objective 24487.0000.
1 of 1 MIP starts provided solutions.
MIP start 'm1' defined initial solution with objective 24487.0000.
Tried aggregator 1 time.
MIP Presolve eliminated 54 rows and 1 columns.
MIP Presolve added 108 rows and 0 columns.
Reduced MIP has 297 rows, 376 columns, and 860 nonzeros.
Reduced MIP has 188 binaries, 0 generals, 0 SOSs, and 0 indicators.
Presolve time = 0.00 sec. (0.75 ticks)
Probing fixed 0 vars, tightened 3 bounds.
Probing time = 0.00 sec. (0.05 ticks)
Tried aggregator 1 time.
Detecting symmetries...
MIP Presolve modified 9 coefficients.
Reduced MIP has 297 rows, 376 columns, and 860 nonzeros.
Reduced MIP has 188 binaries, 0 generals, 0 SOSs, and 0 indicators.
Presolve time = 0.00 sec. (0.76 ticks)
Probing time = 0.00 sec. (0.05 ticks)
Clique table members: 2.
MIP emphasis: balance optimality and feasibility.
MIP search method: dynamic search.
Parallel mode: none, using 1 thread.
Tried aggregator 1 time.
LP Presolve eliminated 134 rows and 134 columns.
Aggregator did 54 substitutions.
Reduced LP has 109 rows, 188 columns, and 484 nonzeros.
Presolve time = 0.00 sec. (0.22 ticks)

Iteration log . . .
Iteration:     1   Dual objective     =          1234.624000
Initializing dual steep norms . . .
Root relaxation solution time = 0.00 sec. (0.56 ticks)

        Nodes                                         Cuts/
   Node  Left     Objective  IInf  Best Integer    Best Bound    ItCnt     Gap

*     0+    0                        24487.0000        0.0000           100.00%
Found incumbent of value 24487.000000 after 0.00 sec. (2.72 ticks)
      0     0     9178.6050    43    24487.0000     9178.6050       59   62.52%
      0     0    18462.0386    61    24487.0000     Cuts: 158      161   24.60%
      0     0    20613.0056    64    24487.0000     Cuts: 161      245   15.82%
      0     0    21352.9162    65    24487.0000     Cuts: 103      336   12.80%
      0     0    22034.5328    80    24487.0000      Cuts: 87      398   10.02%
      0     0    22251.0795    56    24487.0000     Cuts: 135      454    9.13%
Detecting symmetries...
      0     0    22455.0247    67    24487.0000      Cuts: 50      511    8.30%
      0     0    22576.8861    55    24487.0000      Cuts: 50      546    7.80%
      0     0    22657.1327    79    24487.0000      Cuts: 59      585    7.47%
      0     0    22727.2588    77    24487.0000      Cuts: 42      620    7.19%
      0     0    22793.5294    66    24487.0000      Cuts: 36      658    6.92%
      0     0    22821.8531    74    24487.0000      Cuts: 36      674    6.80%
      0     0    22841.0032    64    24487.0000      Cuts: 29      695    6.72%
      0     0    22874.0605    75    24487.0000      Cuts: 72      729    6.59%
      0     0    22892.4585    70    24487.0000      Cuts: 41      753    6.51%
      0     0    22907.0130    57    24487.0000      Cuts: 25      781    6.45%
      0     0    22920.4299    75    24487.0000  Flowcuts: 12      806    6.40%
      0     0    22944.3590    74    24487.0000      Cuts: 17      817    6.30%
      0     0    22960.5970    72    24487.0000      Cuts: 29      838    6.23%
      0     0    22977.5852    76    24487.0000      Cuts: 14      857    6.16%
      0     0    22979.7423    72    24487.0000      Cuts: 12      868    6.16%
      0     0    22979.7977    72    24487.0000   Flowcuts: 6      869    6.16%
Detecting symmetries...
      0     2    22979.7977    72    24487.0000    22980.3517      869    6.15%
Elapsed time = 0.16 sec. (124.45 ticks, tree = 0.01 MB, solutions = 1)
    398   306    23495.3904    60    24487.0000    23157.9568     8428    5.43%
                                                     Cuts: 25                  
    763   548    23806.8844    41    24487.0000    23233.0317    16521    5.12%
                                                     Cuts: 33                  

Performing restart 1

Repeating presolve.
Tried aggregator 1 time.
MIP Presolve modified 229 coefficients.
Reduced MIP has 297 rows, 376 columns, and 860 nonzeros.
Reduced MIP has 188 binaries, 0 generals, 0 SOSs, and 0 indicators.
Presolve time = 0.00 sec. (0.63 ticks)
Tried aggregator 1 time.
MIP Presolve modified 71 coefficients.
Reduced MIP has 297 rows, 376 columns, and 860 nonzeros.
Reduced MIP has 188 binaries, 0 generals, 0 SOSs, and 0 indicators.
Presolve time = 0.00 sec. (0.76 ticks)
Represolve time = 0.00 sec. (2.59 ticks)
Tried aggregator 1 time.
LP Presolve eliminated 23 rows and 6 columns.
Aggregator did 1 substitutions.
Reduced LP has 536 rows, 369 columns, and 2656 nonzeros.
Presolve time = 0.00 sec. (0.37 ticks)

Iteration log . . .
Iteration:     1   Dual objective     =          1146.000000
Iteration:    72   Dual objective     =         10597.482313
Iteration:   138   Dual objective     =         19514.535302
Iteration:   200   Dual objective     =         22535.495656
Iteration:   262   Dual objective     =         22908.339027
Initializing dual steep norms . . .
   1024     0    23064.9274    93    24487.0000      Cuts: 64    25362    4.62%
   1024     0    23157.2072    70    24487.0000      Cuts: 91    25427    4.62%
   1024     0    23220.3251    99    24487.0000     Cuts: 142    25502    4.62%
   1024     0    23271.4380   100    24487.0000      Cuts: 70    25576    4.62%
   1024     0    23295.2716    82    24487.0000      Cuts: 96    25624    4.62%
   1024     0    23315.3839    81    24487.0000      Cuts: 40    25677    4.62%
   1024     0    23360.8135   104    24487.0000     Cuts: 104    25755    4.60%
   1024     0    23389.7808    99    24487.0000     Cuts: 110    25812    4.48%
   1024     0    23405.0707    90    24487.0000      Cuts: 84    25854    4.42%
   1024     0    23417.6734    93    24487.0000      Cuts: 40    25903    4.37%
   1024     0    23439.2667    81    24487.0000      Cuts: 61    25948    4.28%
   1024     0    23449.8768    87    24487.0000      Cuts: 63    25999    4.24%
   1024     0    23476.7855   101    24487.0000      Cuts: 88    26073    4.13%
   1024     0    23496.7970    74    24487.0000      Cuts: 61    26127    4.04%
   1024     0    23503.0093    83    24487.0000      Cuts: 64    26152    4.02%
   1024     0    23504.4140    91    24487.0000      Cuts: 30    26180    4.01%
   1024     0    23510.0400    95    24487.0000      Cuts: 41    26229    3.99%
   1024     0    23539.7595   100    24487.0000      Cuts: 62    26323    3.87%
   1024     0    23552.4804    76    24487.0000      Cuts: 98    26376    3.82%
   1024     0    23559.0805    98    24487.0000      Cuts: 82    26428    3.79%
   1024     0    23569.8932    98    24487.0000      Cuts: 55    26502    3.75%
   1024     0    23573.0142    82    24487.0000      Cuts: 63    26551    3.73%
   1024     0    23576.6225   102    24487.0000      Cuts: 40    26616    3.72%
   1024     0    23577.4980   102    24487.0000      Cuts: 62    26643    3.71%
   1024     0    23578.4463    95    24487.0000      Cuts: 20    26658    3.71%
   1024     0    23580.5306   100    24487.0000      Cuts: 17    26704    3.70%
   1024     2    23580.5306   102    24487.0000    23580.5330    26704    3.70%
   1029     7    23598.7840    90    24487.0000    23600.0418    27047    3.62%
   1060    25    24099.2611    96    24487.0000    23617.8002    28444    3.55%
                                                     Cuts: 30                  
   1135    71    23984.5848    92    24487.0000    23638.5601    32505    3.46%
                                                     Cuts: 29                  
   1188   100    23803.4808    77    24487.0000    23670.7041    36748    3.33%
                                                     Cuts: 23                  
   1244   136    24288.5793    56    24487.0000    23756.1916    40560    2.98%
                                                     Cuts: 21                  
   1291   155    24462.3678    30    24487.0000    23821.9453    45077    2.72%
                                                     Cuts: 12                  
   1525   250        cutoff          24487.0000    23985.7305    63612    2.05%
                                                     Cuts: 53                  
Elapsed time = 3.56 sec. (4059.95 ticks, tree = 0.19 MB, solutions = 1)
   1719   300        cutoff          24487.0000    24101.2274    80526    1.58%
                                                     Cuts: 42                  
   1920   323    24397.7563    80    24487.0000    24167.7078    97081    1.30%
                                                      Cuts: 7                  
   2298   208    24438.9938    54    24487.0000    24363.3061   118207    0.51%
                                                      Cuts: 2                  

Cover cuts applied:  29
Implied bound cuts applied:  7
Flow cuts applied:  254
Mixed integer rounding cuts applied:  50
Flow path cuts applied:  18
Zero-half cuts applied:  6
Multi commodity flow cuts applied:  3
Lift and project cuts applied:  26
Gomory fractional cuts applied:  7

Root node processing (before b&c):
  Real time             =    0.16 sec. (124.44 ticks)
Sequential b&c:
  Real time             =    5.67 sec. (7096.21 ticks)
                          ------------
Total (root+branch&cut) =    5.83 sec. (7220.66 ticks)

--- MIP status (101): integer optimal solution.
--- Cplex Time: 5.83sec (det. 7220.66 ticks)

--- Fixing integer variables and solving final LP...

Version identifier: 20.1.0.0 | 2020-11-10 | 9bedb6d68
CPXPARAM_Advance                                 2
CPXPARAM_Threads                                 1
CPXPARAM_MIP_Display                             4
CPXPARAM_TimeLimit                               3600
CPXPARAM_MIP_Tolerances_AbsMIPGap                0
CPXPARAM_MIP_Tolerances_MIPGap                   0
Tried aggregator 1 time.
LP Presolve eliminated 243 rows and 377 columns.
All rows and columns eliminated.
Presolve time = 0.00 sec. (0.14 ticks)

--- Fixed MIP status (1): optimal.
--- Cplex Time: 0.00sec (det. 0.24 ticks)


Proven optimal solution
MIP Solution:        24487.000000    (124081 iterations, 2582 nodes)
Final Solve:         24487.000000    (0 iterations)

Best possible:       24487.000000
Absolute gap:            0.000000
Relative gap:            0.000000

--- Reading solution for model master
*** Status: Normal completion
--- Job bchfcnet.gms Stop 02/08/22 12:23:51 elapsed 0:00:05.954
